c FILE: i080-114

c SOURCE: From steinlib

c DESCRIPTION: Steinlib instance with 80 nodes and 350 edges.

p edge 80 350
e 1 6
e 1 8
e 1 16
e 1 27
e 1 30
e 1 37
e 1 40
e 1 45
e 1 50
e 1 58
e 1 67
e 2 3
e 2 11
e 2 23
e 2 61
e 2 67
e 3 15
e 3 24
e 3 36
e 3 53
e 3 70
e 3 80
e 4 8
e 4 11
e 4 34
e 4 59
e 4 64
e 4 69
e 5 20
e 5 22
e 5 25
e 5 45
e 5 58
e 6 29
e 6 58
e 6 64
e 7 19
e 7 29
e 7 35
e 7 70
e 7 73
e 8 11
e 8 16
e 8 19
e 8 29
e 8 36
e 8 48
e 8 49
e 8 52
e 8 53
e 8 60
e 8 69
e 8 71
e 8 72
e 8 76
e 9 20
e 9 43
e 9 57
e 9 58
e 9 65
e 9 68
e 9 71
e 9 79
e 9 80
e 10 16
e 10 27
e 10 32
e 10 37
e 10 38
e 10 62
e 10 75
e 10 77
e 10 78
e 11 22
e 11 26
e 11 32
e 11 33
e 11 35
e 11 40
e 11 50
e 11 60
e 11 80
e 12 16
e 12 29
e 12 32
e 12 56
e 12 58
e 12 59
e 12 63
e 12 68
e 13 16
e 13 24
e 13 27
e 13 36
e 13 40
e 13 46
e 13 50
e 13 51
e 13 58
e 13 59
e 13 61
e 13 67
e 13 69
e 13 71
e 13 78
e 14 17
e 14 24
e 14 27
e 14 79
e 15 19
e 15 21
e 15 31
e 15 41
e 15 59
e 16 32
e 16 35
e 16 64
e 16 68
e 16 74
e 16 78
e 17 56
e 17 58
e 17 71
e 17 73
e 17 75
e 18 21
e 18 22
e 18 36
e 18 54
e 18 56
e 18 60
e 19 55
e 19 56
e 19 77
e 20 25
e 20 27
e 20 40
e 20 54
e 20 58
e 20 68
e 21 26
e 21 33
e 21 36
e 21 41
e 21 51
e 21 53
e 21 63
e 21 64
e 22 23
e 22 24
e 22 47
e 22 62
e 22 72
e 22 75
e 22 79
e 22 80
e 23 44
e 23 60
e 24 33
e 24 36
e 24 47
e 24 53
e 24 54
e 24 55
e 24 69
e 25 28
e 25 39
e 25 43
e 25 46
e 25 59
e 26 45
e 26 55
e 26 59
e 26 73
e 27 31
e 27 34
e 27 48
e 27 53
e 27 54
e 27 55
e 27 59
e 27 60
e 28 30
e 28 37
e 28 42
e 28 55
e 28 61
e 28 72
e 28 80
e 29 37
e 30 35
e 30 40
e 30 47
e 30 49
e 30 55
e 30 71
e 30 72
e 30 74
e 30 80
e 31 37
e 31 43
e 31 45
e 31 48
e 31 50
e 31 55
e 31 59
e 31 66
e 31 72
e 31 76
e 32 35
e 32 41
e 32 45
e 32 49
e 33 36
e 33 45
e 33 51
e 34 42
e 34 45
e 34 58
e 34 62
e 34 74
e 34 77
e 35 46
e 35 58
e 35 80
e 36 37
e 36 43
e 36 59
e 36 63
e 36 68
e 36 80
e 37 46
e 37 53
e 37 62
e 37 67
e 37 76
e 38 39
e 38 48
e 38 52
e 38 62
e 38 72
e 38 76
e 39 44
e 39 48
e 39 54
e 39 57
e 40 42
e 40 62
e 40 63
e 40 67
e 40 70
e 41 58
e 41 66
e 41 68
e 41 75
e 42 69
e 42 71
e 42 72
e 42 77
e 43 44
e 43 51
e 43 60
e 43 71
e 43 76
e 43 77
e 44 45
e 44 48
e 44 57
e 44 58
e 45 50
e 45 53
e 45 64
e 45 71
e 45 75
e 46 49
e 46 67
e 46 77
e 47 51
e 47 60
e 47 67
e 47 72
e 47 78
e 47 79
e 48 49
e 48 68
e 48 69
e 49 54
e 49 70
e 49 77
e 50 59
e 50 65
e 50 70
e 50 74
e 50 78
e 50 79
e 51 53
e 51 59
e 51 72
e 51 76
e 52 57
e 52 66
e 52 77
e 53 55
e 53 57
e 53 66
e 53 80
e 54 55
e 54 65
e 54 67
e 54 69
e 54 72
e 54 80
e 55 56
e 55 61
e 55 63
e 55 78
e 56 65
e 56 67
e 56 75
e 57 77
e 57 80
e 58 59
e 58 78
e 59 60
e 59 65
e 59 70
e 59 74
e 60 67
e 60 80
e 61 69
e 61 77
e 63 67
e 63 74
e 64 66
e 65 67
e 65 73
e 66 76
e 66 80
e 67 68
e 67 70
e 67 73
e 67 74
e 68 71
e 68 75
e 71 73
e 71 76
e 72 77
e 73 76
e 73 79
e 74 75
